70
1 0 7
2 0 5
3 0 1
3 1 1
3 2 3
4 0 1
4 3 8
5 0 3
5 1 6
5 2 5
6 1 3
6 3 2
6 5 6
7 0 5
7 6 10
8 0 7
8 1 6
8 2 1
8 5 5
9 2 4
9 3 9
9 4 7
9 5 5
9 8 2
10 1 2
10 2 6
10 4 1
10 5 7
10 6 2
10 7 6
10 8 3
11 1 1
11 6 5
11 9 5
12 1 1
12 2 9
12 5 10
12 6 4
12 7 3
12 10 7
13 1 6
13 6 7
13 8 10
13 9 7
13 10 10
14 0 6
14 1 4
14 2 8
14 3 3
14 4 9
14 5 6
14 8 3
14 11 9
15 1 7
15 2 4
15 6 9
15 7 3
15 8 2
15 10 4
15 12 1
15 13 1
15 14 9
16 2 1
16 3 7
16 5 3
16 8 3
16 14 3
16 15 5
17 0 1
17 1 8
17 2 2
17 4 1
17 5 1
17 8 4
17 9 1
17 16 1
18 1 9
18 4 7
18 6 6
18 7 2
18 9 3
18 11 8
18 13 10
18 14 1
18 15 5
18 17 1
19 1 8
19 3 8
19 7 1
19 8 1
19 9 1
19 10 10
19 14 1
19 15 8
19 17 5
19 18 7
20 2 4
20 6 1
20 10 1
20 11 8
20 13 8
20 14 2
20 16 4
21 0 3
21 3 9
21 4 6
21 5 8
21 8 2
21 11 1
21 16 3
21 19 8
22 6 5
22 8 1
22 9 7
22 11 3
22 12 6
22 13 7
22 15 9
22 17 8
22 19 6
23 1 2
23 4 10
23 5 8
23 9 4
23 12 3
23 13 3
23 14 5
23 15 9
23 16 4
23 21 3
23 22 9
24 1 1
24 2 9
24 7 4
24 8 5
24 9 8
24 11 6
24 12 3
24 13 10
24 15 5
24 16 6
24 19 3
24 20 6
24 22 3
24 23 8
25 0 3
25 4 6
25 5 5
25 10 4
25 11 6
25 19 10
25 20 7
25 22 6
26 5 2
26 8 9
26 10 3
26 11 5
26 12 9
26 13 3
26 14 10
26 16 2
26 17 2
26 18 9
26 20 9
26 24 6
27 0 6
27 2 1
27 8 8
27 9 5
27 10 3
27 11 6
27 12 7
27 17 5
27 18 2
27 20 2
27 24 4
28 0 8
28 1 1
28 2 10
28 3 9
28 4 8
28 5 6
28 6 1
28 7 7
28 8 2
28 11 7
28 12 1
28 14 10
28 15 4
28 16 8
28 20 9
28 21 1
28 23 7
28 24 2
29 1 8
29 3 6
29 4 5
29 5 5
29 6 2
29 7 10
29 8 7
29 9 1
29 13 1
29 14 2
29 15 1
29 16 3
29 17 2
29 19 10
29 20 3
29 21 4
29 22 5
29 23 6
29 26 8
29 27 2
30 0 2
30 3 4
30 4 9
30 5 8
30 6 10
30 8 3
30 13 9
30 14 6
30 15 2
30 17 3
30 19 10
30 21 8
30 22 8
30 24 10
30 26 4
30 27 8
30 29 6
31 1 4
31 2 3
31 3 3
31 7 2
31 8 2
31 10 3
31 12 9
31 13 4
31 14 8
31 17 6
31 20 3
31 22 6
31 23 5
31 26 1
31 29 9
32 1 1
32 2 8
32 3 6
32 6 2
32 10 6
32 11 10
32 14 5
32 15 10
32 16 4
32 17 2
32 19 4
32 25 1
32 27 1
32 28 2
32 29 5
32 30 10
32 31 5
33 3 6
33 4 10
33 5 6
33 6 3
33 9 1
33 11 4
33 14 10
33 19 8
33 20 10
33 21 1
33 22 5
33 23 5
33 26 8
33 32 6
34 0 5
34 2 9
34 3 8
34 7 9
34 8 10
34 9 3
34 11 3
34 15 10
34 18 9
34 20 5
34 22 7
34 23 2
34 25 2
34 26 1
34 27 1
34 30 4
35 0 2
35 2 6
35 3 2
35 7 10
35 10 7
35 11 3
35 15 4
35 17 8
35 19 2
35 22 1
35 24 7
35 26 10
35 27 1
35 29 4
35 31 7
35 32 9
35 34 3
36 1 10
36 2 2
36 3 8
36 4 4
36 5 2
36 6 9
36 9 3
36 10 5
36 13 5
36 14 1
36 15 3
36 17 5
36 18 1
36 23 8
36 26 9
36 29 8
36 31 10
36 32 2
36 33 6
36 35 9
37 0 4
37 1 4
37 2 10
37 4 4
37 5 10
37 6 9
37 7 5
37 8 7
37 10 6
37 11 10
37 12 10
37 13 1
37 14 7
37 16 6
37 20 7
37 21 4
37 22 10
37 23 10
37 24 4
37 25 3
37 26 8
37 28 1
37 29 7
37 32 9
37 35 2
37 36 1
38 0 6
38 7 8
38 9 2
38 13 3
38 14 9
38 16 9
38 19 9
38 21 3
38 24 9
38 25 7
38 28 8
38 30 5
38 31 5
38 33 8
38 34 5
38 35 2
39 1 8
39 6 2
39 7 7
39 12 1
39 15 4
39 16 5
39 17 2
39 19 9
39 20 10
39 21 9
39 24 2
39 25 6
39 28 4
39 29 6
39 31 3
39 32 5
39 35 8
39 36 8
39 37 1
40 2 8
40 4 6
40 5 7
40 6 8
40 8 9
40 10 3
40 11 4
40 12 1
40 15 10
40 17 1
40 18 1
40 19 3
40 20 3
40 22 1
40 23 9
40 24 2
40 25 8
40 27 6
40 30 7
40 31 5
40 32 9
40 33 4
40 35 6
40 36 6
40 39 6
41 1 1
41 4 5
41 6 9
41 8 5
41 9 1
41 10 5
41 12 4
41 13 9
41 14 1
41 15 6
41 18 5
41 19 3
41 22 3
41 25 4
41 27 4
41 29 6
41 32 7
41 34 6
41 36 1
41 39 4
41 40 8
42 2 7
42 3 7
42 4 8
42 5 1
42 6 4
42 10 2
42 12 2
42 17 2
42 18 2
42 20 6
42 22 2
42 23 4
42 24 8
42 27 9
42 28 2
42 29 5
42 30 9
42 32 3
42 33 4
42 34 7
42 35 8
42 36 9
42 37 1
42 38 9
42 39 6
43 0 8
43 1 10
43 3 1
43 4 7
43 5 6
43 8 1
43 9 10
43 11 4
43 12 3
43 13 2
43 14 10
43 15 7
43 18 4
43 24 2
43 26 3
43 31 4
43 32 7
43 33 2
43 35 1
43 39 6
43 40 8
43 41 7
44 0 4
44 4 8
44 7 4
44 9 8
44 10 6
44 12 1
44 13 8
44 15 8
44 18 7
44 19 9
44 20 9
44 21 4
44 23 3
44 26 5
44 28 4
44 29 6
44 30 7
44 31 3
44 32 3
44 33 6
44 34 10
44 36 9
44 37 10
44 38 2
44 42 6
45 1 6
45 6 2
45 7 6
45 8 9
45 10 8
45 12 1
45 14 1
45 18 3
45 20 4
45 21 8
45 27 10
45 28 5
45 29 10
45 30 9
45 35 3
45 36 5
45 37 8
45 41 4
45 42 3
45 43 1
46 0 3
46 1 2
46 4 9
46 5 10
46 6 5
46 7 6
46 10 1
46 13 7
46 15 4
46 16 2
46 17 2
46 19 5
46 21 5
46 22 5
46 23 2
46 24 5
46 27 4
46 28 4
46 29 1
46 33 10
46 34 3
46 35 9
46 36 1
46 37 5
46 38 7
46 40 1
46 42 2
46 43 6
46 44 7
47 0 1
47 2 8
47 4 1
47 8 10
47 10 10
47 11 7
47 17 3
47 20 8
47 21 3
47 27 4
47 28 1
47 31 6
47 32 5
47 34 5
47 35 7
47 36 8
47 43 3
48 0 6
48 1 3
48 11 8
48 12 1
48 14 8
48 15 10
48 16 8
48 17 1
48 18 3
48 20 2
48 21 7
48 22 3
48 24 9
48 26 3
48 34 8
48 35 10
48 36 5
48 37 10
48 39 8
48 41 5
48 43 4
48 45 1
49 1 2
49 2 10
49 4 9
49 5 4
49 7 7
49 10 2
49 11 7
49 13 4
49 17 5
49 20 4
49 24 7
49 25 8
49 27 1
49 29 5
49 31 4
49 33 3
49 35 5
49 39 10
49 42 5
49 43 7
49 44 8
49 45 9
49 46 2
49 48 6
50 0 4
50 1 5
50 3 5
50 6 10
50 12 5
50 13 7
50 15 9
50 16 1
50 17 2
50 19 7
50 20 10
50 23 10
50 24 9
50 25 4
50 27 3
50 30 10
50 34 8
50 36 2
50 37 2
50 39 2
50 40 4
50 41 9
50 45 4
50 46 4
50 47 7
50 48 8
51 0 4
51 1 10
51 2 2
51 4 5
51 7 10
51 8 1
51 11 6
51 12 8
51 13 2
51 15 8
51 19 2
51 20 8
51 21 2
51 23 8
51 25 4
51 27 7
51 28 10
51 29 3
51 31 6
51 32 9
51 34 5
51 39 7
51 40 5
51 42 5
51 45 1
51 46 9
51 48 10
52 1 2
52 2 5
52 4 2
52 8 8
52 11 10
52 12 7
52 14 9
52 15 2
52 18 6
52 21 5
52 23 8
52 24 3
52 25 6
52 27 1
52 31 4
52 32 5
52 33 2
52 35 6
52 36 5
52 37 9
52 40 7
52 41 8
52 42 9
52 43 10
52 45 6
52 46 10
52 48 5
52 50 7
53 0 5
53 2 9
53 3 10
53 5 6
53 6 7
53 7 4
53 11 5
53 12 9
53 14 5
53 15 10
53 19 2
53 21 8
53 23 7
53 25 8
53 26 1
53 28 1
53 29 1
53 32 9
53 34 4
53 36 10
53 38 6
53 39 2
53 40 9
53 41 8
53 43 1
53 44 10
53 47 4
53 50 6
53 51 6
54 0 7
54 1 6
54 3 6
54 7 10
54 8 2
54 11 9
54 13 1
54 14 2
54 15 6
54 18 5
54 19 7
54 20 2
54 22 9
54 26 3
54 28 9
54 32 7
54 36 6
54 40 3
54 42 9
54 44 9
54 46 2
54 49 4
54 52 7
55 0 5
55 4 8
55 5 8
55 6 8
55 8 7
55 12 6
55 13 1
55 14 6
55 15 5
55 17 2
55 20 2
55 21 3
55 29 1
55 37 9
55 40 6
55 41 4
55 42 8
55 43 1
55 44 9
55 47 10
55 52 3
56 1 10
56 2 9
56 3 1
56 5 7
56 6 10
56 7 6
56 8 8
56 9 7
56 11 4
56 12 5
56 13 10
56 14 4
56 15 1
56 18 1
56 19 10
56 21 5
56 22 2
56 23 5
56 24 8
56 30 9
56 31 6
56 32 8
56 33 6
56 34 1
56 36 4
56 39 7
56 40 5
56 41 3
56 44 3
56 46 10
56 47 9
56 54 3
57 4 7
57 5 10
57 6 7
57 8 6
57 10 10
57 14 7
57 15 8
57 21 4
57 22 1
57 28 7
57 29 2
57 30 3
57 32 8
57 39 2
57 40 6
57 41 10
57 47 7
57 49 4
57 50 5
57 51 9
57 53 1
57 56 6
58 2 1
58 5 5
58 6 9
58 9 2
58 10 4
58 12 5
58 13 7
58 15 5
58 16 2
58 17 9
58 18 5
58 19 8
58 20 9
58 21 5
58 23 8
58 24 3
58 26 6
58 27 3
58 33 10
58 35 5
58 37 4
58 40 9
58 42 2
58 48 8
58 51 2
58 52 6
58 54 8
58 55 4
58 56 1
58 57 4
59 0 4
59 2 3
59 4 6
59 9 9
59 10 4
59 13 10
59 14 10
59 15 3
59 16 10
59 17 5
59 18 10
59 21 9
59 22 3
59 25 5
59 26 3
59 28 7
59 33 4
59 36 8
59 38 7
59 39 4
59 41 5
59 43 5
59 48 8
59 49 7
59 50 3
59 51 4
59 52 1
59 56 5
59 57 1
59 58 10
60 0 2
60 2 2
60 3 1
60 4 10
60 6 8
60 12 2
60 17 2
60 18 6
60 19 10
60 23 10
60 24 10
60 25 6
60 26 8
60 27 8
60 29 5
60 32 3
60 35 10
60 36 4
60 37 4
60 41 2
60 44 7
60 45 1
60 47 2
60 49 2
60 51 2
60 52 4
60 57 9
60 58 7
60 59 3
61 0 1
61 1 5
61 3 9
61 4 7
61 5 6
61 7 7
61 8 3
61 11 2
61 13 6
61 14 2
61 17 5
61 18 1
61 19 5
61 21 6
61 22 5
61 23 5
61 26 5
61 27 9
61 29 8
61 31 8
61 32 6
61 33 1
61 36 8
61 37 1
61 39 10
61 40 3
61 41 9
61 42 1
61 47 7
61 48 1
61 52 2
61 53 5
61 58 9
62 0 2
62 1 7
62 2 1
62 3 9
62 6 2
62 7 5
62 10 6
62 11 2
62 12 6
62 15 4
62 17 5
62 20 3
62 21 8
62 23 3
62 25 9
62 27 9
62 29 2
62 34 1
62 35 4
62 36 7
62 37 6
62 38 10
62 39 4
62 41 5
62 42 10
62 46 3
62 47 5
62 48 5
62 50 3
62 51 7
62 54 6
62 57 10
62 59 5
63 0 1
63 4 1
63 5 6
63 9 7
63 21 4
63 22 7
63 23 1
63 25 3
63 26 4
63 28 10
63 30 4
63 32 10
63 34 10
63 35 9
63 38 5
63 40 3
63 41 4
63 42 1
63 43 5
63 45 8
63 46 1
63 47 5
63 48 4
63 52 2
63 55 10
63 57 10
63 59 6
63 60 10
63 61 5
63 62 7
64 0 3
64 2 3
64 4 2
64 6 4
64 7 5
64 9 1
64 10 4
64 11 8
64 12 2
64 15 2
64 16 5
64 17 1
64 19 8
64 20 8
64 21 3
64 24 9
64 25 4
64 27 8
64 28 2
64 31 4
64 33 2
64 37 10
64 41 5
64 42 1
64 44 2
64 45 8
64 47 6
64 48 6
64 53 3
64 55 4
64 57 4
64 58 1
64 59 3
64 60 5
64 63 8
65 0 3
65 2 10
65 4 2
65 5 10
65 6 3
65 7 2
65 8 2
65 9 6
65 10 1
65 11 5
65 12 7
65 13 8
65 16 6
65 18 6
65 19 3
65 20 6
65 22 1
65 24 1
65 25 10
65 26 9
65 29 7
65 32 4
65 35 7
65 37 10
65 38 1
65 39 8
65 40 8
65 41 4
65 42 2
65 44 10
65 46 9
65 47 10
65 48 3
65 51 4
65 54 10
65 55 4
65 58 5
65 60 8
65 62 10
65 64 5
66 0 4
66 2 10
66 3 1
66 4 7
66 7 5
66 9 7
66 11 8
66 13 9
66 14 10
66 15 10
66 17 1
66 18 9
66 19 8
66 20 1
66 21 1
66 23 3
66 29 10
66 31 2
66 33 10
66 37 6
66 43 6
66 46 4
66 48 1
66 50 1
66 54 9
66 56 10
66 57 3
66 58 3
66 62 1
66 63 1
66 65 5
67 0 7
67 4 4
67 8 2
67 9 1
67 10 3
67 11 9
67 15 8
67 17 6
67 18 7
67 19 2
67 21 5
67 23 5
67 25 3
67 26 5
67 27 6
67 30 3
67 32 10
67 33 9
67 34 8
67 36 6
67 41 7
67 45 4
67 46 1
67 49 9
67 50 8
67 51 1
67 53 10
67 55 9
67 56 10
67 57 10
67 58 4
67 60 4
67 61 2
67 63 9
67 64 10
67 65 2
67 66 5
68 0 9
68 1 5
68 4 8
68 5 1
68 8 1
68 12 6
68 15 10
68 17 9
68 18 4
68 19 5
68 20 5
68 21 2
68 22 7
68 24 8
68 25 8
68 26 3
68 28 10
68 31 5
68 33 7
68 35 3
68 36 6
68 37 9
68 38 10
68 42 8
68 43 5
68 45 9
68 46 10
68 47 10
68 52 5
68 53 3
68 54 7
68 55 6
68 56 9
68 57 1
68 59 6
68 60 1
68 62 3
68 64 7
68 67 1
69 3 8
69 4 4
69 8 10
69 10 7
69 14 9
69 15 3
69 18 10
69 19 3
69 24 7
69 25 5
69 27 7
69 30 6
69 32 5
69 34 7
69 35 8
69 36 8
69 38 2
69 39 7
69 40 7
69 46 8
69 47 8
69 50 8
69 52 8
69 56 6
69 57 7
69 60 1
69 61 7
69 62 4
